c FILE: DSJC125.5
c
c SOURCE: David Johnson (dsj@research.att.com)
c
c DESCRIPTION: Random graph used in the paper
c              "Optimization by Simulated Annealing: An
c               Experimental Evaluation; Part II, Graph
c               Coloring and Number Partitioning" by
c              David S. Johnson, Cecilia R. Aragon, 
c              Lyle A. McGeoch and Catherine Schevon
c              Operations Research, 39, 378-406 (1991)
c
p edge 125 7782
e 10 8
e 11 8
e 12 8
e 13 8
e 14 8
e 15 8
e 16 8
e 17 8
e 17 16
e 18 8
e 19 16
e 21 8
e 21 16
e 22 16
e 23 16
e 24 8
e 24 16
e 25 16
e 25 24
e 26 8
e 26 16
e 26 24
e 27 16
e 28 24
e 29 8
e 29 16
e 29 24
e 30 16
e 31 16
e 33 8
e 33 16
e 33 24
e 33 32
e 34 16
e 34 24
e 35 8
e 35 24
e 35 32
e 36 8
e 36 16
e 36 32
e 37 16
e 37 32
e 38 8
e 38 16
e 38 24
e 38 32
e 39 16
e 41 24
e 41 40
e 42 16
e 42 24
e 42 40
e 43 8
e 43 24
e 43 32
e 44 24
e 44 40
e 45 8
e 45 16
e 45 24
e 45 40
e 47 24
e 47 32
e 48 8
e 48 16
e 48 24
e 48 32
e 48 40
e 49 24
e 49 40
e 49 48
e 50 8
e 50 24
e 50 48
e 51 16
e 51 24
e 51 40
e 51 48
e 52 32
e 52 40
e 52 48
e 53 16
e 53 32
e 53 40
e 54 8
e 54 16
e 54 24
e 54 48
e 55 16
e 55 24
e 55 32
e 56 8
e 56 24
e 56 40
e 56 48
e 57 16
e 57 48
e 57 56
e 58 8
e 58 16
e 58 24
e 58 40
e 58 48
e 58 56
e 59 8
e 59 16
e 59 32
e 59 40
e 60 16
e 60 40
e 60 48
e 60 56
e 61 8
e 61 56
e 62 24
e 62 32
e 62 40
e 62 56
e 63 24
e 63 32
e 63 40
e 63 48
e 64 8
e 64 32
e 64 40
e 64 48
e 64 56
e 65 16
e 65 48
e 65 56
e 65 64
e 66 24
e 66 32
e 66 48
e 66 56
e 67 24
e 67 32
e 67 40
e 67 48
e 68 24
e 68 32
e 68 40
e 68 48
e 68 56
e 69 8
e 69 16
e 69 24
e 69 48
e 69 64
e 70 24
e 70 40
e 70 48
e 71 32
e 71 40
e 71 48
e 71 56
e 72 8
e 72 24
e 72 32
e 72 64
e 73 8
e 73 16
e 73 40
e 74 8
e 74 24
e 74 48
e 75 8
e 75 32
e 75 56
e 75 64
e 75 72
e 76 8
e 76 16
e 76 24
e 76 40
e 76 56
e 76 64
e 77 8
e 77 40
e 77 48
e 77 72
e 78 8
e 78 24
e 78 32
e 78 40
e 78 48
e 79 24
e 79 40
e 79 48
e 79 64
e 80 8
e 80 16
e 80 24
e 80 56
e 80 64
e 80 72
e 81 16
e 81 56
e 81 80
e 82 8
e 82 24
e 82 48
e 82 64
e 82 72
e 83 8
e 83 16
e 83 32
e 83 40
e 83 48
e 83 56
e 83 64
e 83 72
e 84 8
e 84 16
e 84 32
e 84 40
e 84 48
e 84 56
e 84 64
e 84 72
e 84 80
e 85 8
e 85 16
e 85 64
e 85 80
e 86 8
e 86 16
e 86 40
e 86 64
e 86 72
e 86 80
e 87 16
e 87 24
e 87 40
e 87 56
e 87 80
e 88 24
e 88 40
e 88 48
e 88 80
e 89 16
e 89 40
e 89 72
e 89 80
e 90 8
e 90 40
e 90 48
e 90 56
e 90 88
e 91 16
e 91 24
e 91 40
e 91 48
e 91 72
e 91 80
e 91 88
e 92 40
e 92 48
e 92 88
e 93 24
e 93 32
e 93 40
e 93 56
e 93 64
e 93 80
e 94 32
e 94 40
e 94 48
e 94 72
e 94 80
e 94 88
e 95 8
e 95 24
e 95 40
e 95 48
e 95 56
e 95 72
e 95 88
e 96 8
e 96 16
e 96 24
e 96 40
e 96 48
e 96 56
e 96 64
e 96 80
e 97 48
e 98 24
e 98 32
e 98 80
e 98 88
e 98 96
e 99 8
e 99 16
e 99 24
e 99 32
e 99 48
e 99 56
e 99 72
e 100 8
e 100 16
e 100 24
e 100 40
e 100 56
e 100 64
e 100 80
e 100 96
e 101 8
e 101 16
e 101 24
e 101 32
e 101 40
e 101 64
e 101 80
e 101 88
e 102 16
e 102 24
e 102 48
e 102 88
e 102 96
e 103 72
e 103 80
e 103 88
e 103 96
e 104 8
e 104 24
e 104 56
e 104 64
e 104 72
e 104 80
e 105 8
e 105 16
e 105 24
e 105 32
e 105 48
e 105 64
e 105 72
e 105 88
e 105 104
e 106 24
e 106 32
e 106 40
e 106 56
e 106 88
e 106 96
e 106 104
e 107 8
e 107 32
e 107 48
e 107 56
e 107 64
e 107 96
e 107 104
e 108 32
e 108 48
e 108 80
e 108 88
e 108 96
e 109 8
e 109 24
e 109 32
e 109 64
e 109 80
e 109 88
e 110 24
e 110 32
e 110 40
e 110 56
e 110 72
e 110 80
e 110 96
e 111 24
e 111 40
e 111 48
e 111 56
e 111 64
e 111 72
e 111 80
e 111 96
e 111 104
e 112 16
e 112 32
e 112 56
e 112 64
e 112 72
e 112 80
e 112 88
e 112 104
e 113 24
e 113 32
e 113 48
e 113 96
e 113 104
e 114 8
e 114 24
e 114 32
e 114 48
e 114 56
e 114 64
e 114 80
e 115 16
e 115 32
e 115 40
e 115 48
e 115 80
e 116 8
e 116 24
e 116 40
e 116 56
e 116 72
e 116 80
e 116 88
e 116 104
e 116 112
e 117 8
e 117 40
e 117 56
e 117 64
e 117 72
e 117 80
e 117 112
e 118 8
e 118 16
e 118 24
e 118 32
e 118 40
e 118 48
e 118 56
e 118 72
e 118 80
e 118 88
e 118 104
e 119 16
e 119 24
e 119 32
e 119 56
e 119 64
e 119 80
e 119 96
e 119 104
e 120 16
e 120 56
e 120 64
e 120 72
e 120 96
e 120 112
e 121 32
e 121 40
e 121 48
e 121 56
e 121 64
e 121 96
e 121 104
e 121 120
e 122 8
e 122 16
e 122 64
e 122 72
e 122 80
e 122 88
e 122 112
e 123 16
e 123 24
e 123 32
e 123 40
e 123 48
e 123 56
e 123 64
e 123 72
e 123 80
e 123 104
e 123 120
e 124 40
e 124 72
e 124 88
e 124 96
e 124 104
e 124 120
e 125 8
e 125 24
e 125 48
e 125 56
e 125 72
